NAME: random-67-31743
TYPE: TSP
COMMENT: size=67 seed=31743
DIMENSION: 136
EDGE_WEIGHT_TYPE: EUC_2D
NODE_COORD_SECTION
+0 601 782
-0 601 782
+1 573 446
-1 221 151
+2 175 944
-2 989 506
+3 637 447
-3 382 71
+4 273 779
-4 130 429
+5 85 967
-5 122 153
+6 307 497
-6 964 775
+7 653 626
-7 359 200
+8 259 999
-8 675 226
+9 990 237
-9 871 391
+10 354 13
-10 466 937
+11 748 906
-11 701 912
+12 710 360
-12 233 571
+13 135 670
-13 936 675
+14 511 10
-14 370 395
+15 194 133
-15 871 663
+16 397 819
-16 55 784
+17 56 592
-17 643 12
+18 440 130
-18 390 728
+19 566 165
-19 491 211
+20 226 429
-20 906 352
+21 811 884
-21 272 350
+22 18 779
-22 590 608
+23 341 402
-23 75 647
+24 228 727
-24 878 297
+25 658 580
-25 101 184
+26 78 532
-26 421 268
+27 87 191
-27 565 442
+28 747 747
-28 207 398
+29 569 266
-29 735 536
+30 644 599
-30 877 894
+31 594 667
-31 122 885
+32 384 653
-32 621 589
+33 442 367
-33 719 374
+34 24 115
-34 120 316
+35 413 864
-35 843 157
+36 877 145
-36 373 140
+37 964 76
-37 533 138
+38 585 37
-38 271 511
+39 493 896
-39 811 941
+40 440 377
-40 80 313
+41 534 55
-41 374 416
+42 766 234
-42 810 631
+43 234 578
-43 107 758
+44 946 801
-44 116 177
+45 237 252
-45 430 99
+46 326 751
-46 444 958
+47 356 138
-47 519 404
+48 579 548
-48 551 331
+49 453 178
-49 82 770
+50 402 555
-50 676 363
+51 569 144
-51 140 656
+52 966 97
-52 897 293
+53 679 922
-53 195 521
+54 545 842
-54 455 293
+55 30 316
-55 856 925
+56 919 737
-56 864 383
+57 10 531
-57 101 683
+58 740 666
-58 100 192
+59 274 919
-59 165 975
+60 533 239
-60 785 523
+61 132 28
-61 310 119
+62 596 25
-62 446 565
+63 788 482
-63 936 234
+64 221 992
-64 328 552
+65 876 490
-65 40 422
+66 850 41
-66 286 814
+67 860 661
-67 603 256
PRECEDENCE_SECTION
+0 -0
+1 -1
+2 -2
+3 -3
+4 -4
+5 -5
+6 -6
+7 -7
+8 -8
+9 -9
+10 -10
+11 -11
+12 -12
+13 -13
+14 -14
+15 -15
+16 -16
+17 -17
+18 -18
+19 -19
+20 -20
+21 -21
+22 -22
+23 -23
+24 -24
+25 -25
+26 -26
+27 -27
+28 -28
+29 -29
+30 -30
+31 -31
+32 -32
+33 -33
+34 -34
+35 -35
+36 -36
+37 -37
+38 -38
+39 -39
+40 -40
+41 -41
+42 -42
+43 -43
+44 -44
+45 -45
+46 -46
+47 -47
+48 -48
+49 -49
+50 -50
+51 -51
+52 -52
+53 -53
+54 -54
+55 -55
+56 -56
+57 -57
+58 -58
+59 -59
+60 -60
+61 -61
+62 -62
+63 -63
+64 -64
+65 -65
+66 -66
+67 -67
EOF
